48 38
14 96
4 39
45 104
18 122
14 19
36 57
6 153
25 155
5 135
10 174
22 115
23 98
10 148
57 33
3 28
82 19
20 160
6 54
22 187
4 172
4 146
75 26
13 70
48 106
85 51
81 15
53 5
66 56
100 57
21 7
49 1
54 10
74 31
22 2
2 9
17 147
37 77
9 45
23 22
66 20
5 54
13 26
13 190
10 4
17 188
82 43
56 2
81 42
58 45
